<?xml version = "1.0" encoding="UTF-8" standalone="yes"?>
<CPLEXSolution version="1.2">
 <header
   problemName="IloCplex"
   solutionName="p0"
   solutionIndex="-1"
   objectiveValue="487911"
   solutionTypeValue="3"
   solutionTypeString="primal"
   solutionStatusValue="127"
   solutionStatusString="integer feasible solution"
   solutionMethodString="mip"
   primalFeasible="0"
   dualFeasible="0"
   writeLevel="3"/>
 <quality
   epInt="1.0000000000000001e-05"
   epRHS="9.9999999999999995e-07"
   maxIntInfeas="0"
   maxPrimalInfeas="0"
   maxX="4737"
   maxSlack="5034"/>
 <variables>
  <variable index="0" value="4737"/>
  <variable index="2" value="4737"/>
  <variable index="3" value="4737"/>
  <variable index="105" value="1"/>
  <variable index="185" value="1"/>
  <variable index="288" value="1"/>
  <variable index="333" value="1"/>
  <variable index="477" value="1"/>
  <variable index="594" value="1"/>
  <variable index="669" value="1"/>
  <variable index="734" value="1"/>
  <variable index="837" value="1"/>
  <variable index="939" value="1"/>
  <variable index="1113" value="1"/>
  <variable index="1201" value="1"/>
  <variable index="1274" value="1"/>
  <variable index="1355" value="1"/>
  <variable index="1440" value="1"/>
  <variable index="1532" value="1"/>
  <variable index="1711" value="1"/>
  <variable index="1730" value="1"/>
  <variable index="1818" value="1"/>
  <variable index="1922" value="1"/>
  <variable index="2093" value="1"/>
  <variable index="2149" value="1"/>
  <variable index="2217" value="1"/>
  <variable index="2403" value="1"/>
  <variable index="2424" value="1"/>
  <variable index="2529" value="1"/>
  <variable index="2692" value="1"/>
  <variable index="2799" value="1"/>
  <variable index="2868" value="1"/>
  <variable index="2973" value="1"/>
  <variable index="3112" value="1"/>
  <variable index="3204" value="1"/>
  <variable index="3287" value="1"/>
  <variable index="3371" value="1"/>
  <variable index="3436" value="1"/>
  <variable index="3567" value="1"/>
  <variable index="3670" value="1"/>
  <variable index="3778" value="1"/>
  <variable index="3906" value="1"/>
  <variable index="3986" value="1"/>
  <variable index="4028" value="1"/>
  <variable index="4209" value="1"/>
  <variable index="4296" value="1"/>
  <variable index="4376" value="1"/>
  <variable index="4510" value="1"/>
  <variable index="4584" value="1"/>
  <variable index="4672" value="1"/>
  <variable index="4775" value="1"/>
  <variable index="4866" value="1"/>
  <variable index="4920" value="1"/>
  <variable index="5114" value="1"/>
  <variable index="5163" value="1"/>
  <variable index="5300" value="1"/>
  <variable index="5343" value="1"/>
  <variable index="5421" value="1"/>
  <variable index="5551" value="1"/>
  <variable index="5648" value="1"/>
  <variable index="5761" value="1"/>
  <variable index="5823" value="1"/>
  <variable index="5927" value="1"/>
  <variable index="6062" value="1"/>
  <variable index="6158" value="1"/>
  <variable index="6219" value="1"/>
  <variable index="6352" value="1"/>
  <variable index="6480" value="1"/>
  <variable index="6538" value="1"/>
  <variable index="6682" value="1"/>
  <variable index="6781" value="1"/>
  <variable index="6889" value="1"/>
  <variable index="6960" value="1"/>
  <variable index="7016" value="1"/>
  <variable index="7154" value="1"/>
  <variable index="7247" value="1"/>
  <variable index="7365" value="1"/>
  <variable index="7464" value="1"/>
  <variable index="7579" value="1"/>
  <variable index="7707" value="1"/>
  <variable index="7741" value="1"/>
  <variable index="7835" value="1"/>
  <variable index="7990" value="1"/>
  <variable index="8098" value="1"/>
  <variable index="8157" value="1"/>
  <variable index="8302" value="1"/>
  <variable index="8395" value="1"/>
  <variable index="8442" value="1"/>
  <variable index="8550" value="1"/>
  <variable index="8626" value="1"/>
  <variable index="8797" value="1"/>
  <variable index="8844" value="1"/>
  <variable index="8946" value="1"/>
  <variable index="9015" value="1"/>
  <variable index="9153" value="1"/>
  <variable index="9291" value="1"/>
  <variable index="9383" value="1"/>
  <variable index="9456" value="1"/>
  <variable index="9559" value="1"/>
  <variable index="9708" value="1"/>
  <variable index="9745" value="1"/>
  <variable index="9825" value="1"/>
  <variable index="9931" value="1"/>
  <variable index="10016" value="1"/>
  <variable index="10017" value="1"/>
 </variables>
</CPLEXSolution>
